60
7
16
94
91
76
99
95
19
77
52
15
12
104
18
37
22
107
100
96
26
71
40
63
29
32
97
46
23
9
64
36
1
74
6
43
27
48
51
75
72
49
53
47
11
82
4
67
83
54
25
69
28
14
102
61
41
57
55
62
56
105
44
70
20
13
89
84
24
106
58
5
88
90
108
80
85
92
87
30
17
35
38
8
45
81
103
21
50
39
110
98
68
59
93
10
33
3
65
0
